889595
64,83,91,38,13,6,80,85,44,3,65,94,46,56,32,8,31,69,0,47,73,36,79,98,67,12,62,59,19,20,29,95,76,40,5,74,68,17,55,9,48,30,61,92,71,54,43,90,52,7,88,84,2,4,63,26,1,34,96,41,35,37,86,75,49,87,82,14,15,81,57,60,66,45,27,10,22,97,53,70,33,89,58,23,42,18,11,16,25,93,39,28,78,50,77,24,72,21,51
